#SOLVERNAME# PAJ_Gurobi_MOSEK_msd_subponly_noinit
#SOLVER# Pajarito.PajaritoSolver(3, 3600.0, 1.0e-5, true, Gurobi.GurobiSolver(nothing, Any[(:OutputFlag, 1), (:Threads, 8), (:IntFeasTol, 1.0e-9), (:FeasibilityTol, 1.0e-8), (:MIPGap, 1.0e-5)]), Pajarito.UnsetSolver(), 0, false, true, Mosek.MosekSolver(Any[(:LOG, 0), (:NUM_THREADS, 8), (:MSK_DPAR_INTPNT_CO_TOL_REL_GAP, 1.0e-10), (:MSK_DPAR_INTPNT_CO_TOL_PFEAS, 1.0e-10), (:MSK_DPAR_INTPNT_CO_TOL_DFEAS, 1.0e-10), (:MSK_DPAR_INTPNT_CO_TOL_NEAR_REL, 1000.0)]), true, true, false, false, true, false, false, true, false, false, false, false, false, false, true, 10.0, true, false, false, false, 1.0e-12, 1.0e-8, false, "")
#INSTANCE# syn20m04m.cbf.gz
#TIMELIMIT# 3600.0

Problem dimensions:
       variables |     477
     constraints |    1737
   nonzeros in A |    3209

Cones summary:
Cone             | Count   | Min dim.  | Max dim. 
   Primal expon. |      56 |         3 |         3

Variable types:
      continuous |     317
         integer |     160

Transforming data...               0.00s

Creating conic subproblem...       0.17s

Building MIP model...              0.00s

Solving conic relaxation...        0.08s
 - Relaxation status    =        Optimal
 - Relaxation bound     =   -9864.892737
Academic license - for non-commercial use only
Optimize a model with 1737 rows, 477 columns and 3265 nonzeros
Variable types: 317 continuous, 160 integer (0 binary)
Coefficient statistics:
  Matrix range     [2e-08, 4e+02]
  Objective range  [1e+00, 1e+00]
  Bounds range     [0e+00, 0e+00]
  RHS range        [8e-13, 4e+01]
Found heuristic solution: objective 5.0000000
Presolve removed 1282 rows and 164 columns
Presolve time: 0.01s
Presolved: 455 rows, 313 columns, 1160 nonzeros
Variable types: 172 continuous, 141 integer (141 binary)

Root relaxation: objective -6.742573e+03, 297 iterations, 0.00 seconds

    Nodes    |    Current Node    |     Objective Bounds      |     Work
 Expl Unexpl |  Obj  Depth IntInf | Incumbent    BestBd   Gap | It/Node Time

     0     0 -6742.5728    0   56    5.00000 -6742.5728      -     -    0s
H    0     0                    -3497.009735 -6742.5728  92.8%     -    0s
     0     0 -4046.9563    0   74 -3497.0097 -4046.9563  15.7%     -    0s
     0     0 -4043.9870    0   82 -3497.0097 -4043.9870  15.6%     -    0s
     0     0 -3850.3735    0   80 -3497.0097 -3850.3735  10.1%     -    0s
H    0     0                    -3510.009607 -3850.3735  9.70%     -    0s
     0     0 -3848.4968    0   79 -3510.0096 -3848.4968  9.64%     -    0s
     0     0 -3828.6729    0   62 -3510.0096 -3828.6729  9.08%     -    0s
     0     0 -3828.6729    0   62 -3510.0096 -3828.6729  9.08%     -    0s
     0     0 -3828.6729    0   62 -3510.0096 -3828.6729  9.08%     -    0s
     0     0 -3828.6729    0   62 -3510.0096 -3828.6729  9.08%     -    0s
     0     2 -3828.6729    0   62 -3510.0096 -3828.6729  9.08%     -    0s

Cutting planes:
  Gomory: 7
  MIR: 60
  Flow cover: 28
  Lazy constraints: 92

Explored 118 nodes (1619 simplex iterations) in 0.27 seconds
Thread count was 8 (of 16 available processors)

Solution count 3: -3510.01 -3497.01 5 

Solve interrupted
Best objective -3.510009607198e+03, best bound -3.532743958889e+03, gap 0.6477%

Starting MIP-solver-driven algorithm

MIP-solver-driven algorithm summary:
 - Status               =        Optimal
 - Best feasible        =  -3.532744e+03
 - Best bound           =  -3.532744e+03
 - Relative opt. gap    =     -3.922e-08
 - Total time (s)       =       5.43e-01

Timers (s):
 - Setup                =   1.74e-01
 -- Transform data      =   1.43e-03
 -- Create conic data   =   1.68e-01
 -- Create MIP data     =   4.27e-03
 - Algorithm            =   3.69e-01
 -- Solve relaxation    =   7.93e-02
 -- Get relaxation cuts =   1.85e-02
 -- MIP solver driving  =   2.71e-01
 -- Solve subproblems   =   1.07e-01
 -- Get subproblem cuts =   1.47e-03
 -- Get separation cuts =   0.00e+00

Counters:
 - Lazy callbacks       =    11
 -- Integer repeats     =     3
 -- Conic subproblems   =     9
 --- Infeasible         =     0
 --- Optimal            =     9
 --- Suboptimal         =     0
 --- UserLimit          =     0
 --- ConicFailure       =     0
 --- Other status       =     0
 -- Feasible solutions  =     9
 --- From subproblems   =     9
 --- In lazy callback   =     0
 - Heuristic callbacks  =    93
 -- Solutions passed    =     4

Solution returned by conic solver

Rounds of full separation/subproblem cuts, and count of cuts added:
Cone             | Subp.  | Sep.   | Total  | Relax. | Viol. 
   Primal expon. |    604 |      0 |     92 |     56 |     92

Distance to feasibility (negative indicates strict feasibility):
Cone             | Variable  | Constraint
          Linear |        NA |  6.23e-08
   Primal expon. |        NA |  1.51e-06

Distance to integrality of integer/binary variables:
         integer |  9.67e-10

#STATUS# Optimal
#OBJVAL# -3532.744097450623
#OBJBOUND# -3532.743958888868
#NODECOUNT# 118
#TIMESOLVER# 0.5428600311279297
#TIMEALL# 0.5548670291900635
#SOLUTION# [39.99999821367608,39.999998244222134,39.99999827098372,39.99999759885234,-0.0,-0.0,-0.0,-0.0,8.912573021556502,8.912573031044992,8.912573027201553,8.91257302773887,-0.0,-0.0,-0.0,-0.0,0.0,0.0,0.0,0.0,-0.0,-0.0,-0.0,-0.0,-0.0,-0.0,-0.0,-0.0,-0.0,-0.0,-0.0,-0.0,-0.0,-0.0,-0.0,-0.0,-0.0,-0.0,2.484952826662545,-0.0,2.4428287251463043,2.575445631825765,-0.0,2.4544371992795075,2.1729663953409213e-7,0.11578390186128998,0.18805229556613373,4.74702857735964e-8,-0.0,-0.0,-0.0,-0.0,0.26023299068711436,5.892297513277475e-8,0.013489752051991842,0.25049242889421364,0.0,-0.0,-0.0,-0.0,0.9999999999999997,-0.0,-0.0,-0.0,0.0,0.0,-0.0,-0.0,0.0,0.0,0.0,0.0,1.0,0.0,-0.0,-0.0,0.0,0.0,0.0,-0.0,0.0,0.0,-0.0,-0.0,0.0,0.0,0.0,0.0,-0.0,-0.0,-0.0,-0.0,1.0,-0.0,-0.0,-0.0,1.0,-0.0,0.0,-0.0,0.0,0.0,0.0,0.0,0.0,0.0,-0.0,-0.0,0.0,0.0,0.0,-0.0,0.0,0.0,0.0,0.0,1.0,-0.0,-0.0,-0.0,1.0,-0.0,-0.0,-0.0,1.0,-0.0,-0.0,-0.0,9.666242475693176e-10,0.0,-0.0,-0.0,1.0,-0.0,0.0,0.0,3532.744097450623,-0.0,39.99999821367608,-0.0,39.999998244222134,-0.0,39.99999827098372,-0.0,39.99999759885234,-0.0,4.456286479749844,4.456286479749844,-0.0,4.456286484432624,4.456286484432624,-0.0,4.456286482624758,4.456286482624758,-0.0,4.456286482734667,4.456286482734667,4.456286510778251,4.456286515522496,4.4562865136007765,4.456286513869435,-0.0,-0.0,4.456286510778251,-0.0,-0.0,4.456286515522496,-0.0,-0.0,4.4562865136007765,-0.0,-0.0,4.456286513869435,-0.0,-0.0,-0.0,-0.0,-0.0,-0.0,-0.0,-0.0,-0.0,-0.0,-0.0,-0.0,4.456286510778251,-0.0,4.071381208577174,0.38490530220107755,4.456286515522496,-0.0,4.292409386376275,0.16387712914622088,4.4562865136007765,-0.0,4.141588044437575,0.3146984691632011,4.456286513869435,-0.0,4.090728665465846,0.36555784840358907,-0.0,-0.0,-0.0,-0.0,-0.0,-0.0,-0.0,-0.0,-0.0,-0.0,-0.0,-0.0,-0.0,-0.0,-0.0,-0.0,-0.0,-0.0,-0.0,-0.0,2.4428287251463043,-0.0,2.4428287251463043,2.575445631825765,-0.0,2.575445631825765,2.484952826662545,2.484952826662545,-0.0,2.4544371992795075,-0.0,2.4544371992795075,0.35819496315697485,2.670658443282292e-7,-0.0,0.35819475827277736,0.1669324853853585,0.16693250126440695,-0.0,4.628124683492274e-8,0.3009680980737141,0.2849712745086945,-0.0,0.015996885847400444,0.3427193567624923,3.370043777373155e-8,-0.0,0.3427193851937378,-0.49999999833414427,0.0,-0.49999999833414427,-0.0,-0.49999999833414427,0.0,-0.49999999833414427,0.0,3.7135720405909702,1.0,3.7135720442940525,1.0,3.713572042629508,1.0,3.7135720448775253,1.0,-0.0,-0.0,0.0,0.0,-0.3333333322227625,-0.0,-0.0,-0.3333333322227625,-0.0,0.0,-0.3333333322227625,-0.0,-0.0,-0.3333333322227625,-0.0,0.0,1.0,1.0,1.0,1.0,-0.39999999866731506,-0.0,0.0,-0.39999999866731506,-0.0,0.0,-0.39999999866731506,-0.0,0.0,-0.39999999866731506,-0.0,0.0,-0.5555555537046043,-0.0,-0.0,-0.5555555537046043,-0.0,-0.0,-0.5555555537046043,-0.0,0.0,-0.5555555537046043,-0.0,0.0,-0.49999999833414427,-0.0,-0.49999999833414427,0.0,-0.49999999833414427,-0.0,-0.49999999833414427,0.0,-0.0,-0.0,-0.0,-0.0,1.0,1.0,1.0,1.0,0.325631744209262,1.0,0.15175676356450307,1.0,0.2736073207453128,1.0,0.31156301041511764,1.0,0.0,0.0,0.0,0.0,-0.49999999833414427,-0.0,-0.49999999833414427,0.0,-0.49999999833414427,0.0,-0.49999999833414427,0.0,-0.7142857119059198,0.0,-0.7142857119059198,0.0,-0.7142857119059198,0.0,-0.7142857119059198,0.0,-0.7692307666679136,-0.0,-0.7692307666679136,-0.0,-0.7692307666679136,-0.0,-0.7692307666679136,-0.0,-0.7692307666679136,-0.7692307666679136,-0.7692307666679136,-0.7692307666679136,1.0,1.0,1.0,1.0,1.0,1.0,1.0,1.0,2.3862360204797096e-7,1.0,0.15437848303532914,1.0,0.25073634101188136,1.0,1.2402971467001616e-8,1.0,-0.6249999973135395,9.666242475693176e-10,-0.6249999973135395,9.666242475693176e-10,-0.6249999973135395,9.666242475693176e-10,-0.6249999973135395,9.666242475693176e-10,0.30615641104728386,1.0,2.215953039739807e-8,1.0,0.015870248619622107,1.0,0.2946969260672145,1.0,-0.0,-0.0,-0.0,-0.0,-7.999999999999997,-0.0,-0.0,-0.0,-0.0,-0.0,-0.0,-0.0,-0.0,-0.0,-0.0,-0.0,-6.0,-0.0,-0.0,-0.0,-0.0,-0.0,-0.0,-0.0,-0.0,-0.0,-0.0,-0.0,-0.0,-0.0,-0.0,-0.0,-0.0,-0.0,-0.0,-0.0,-4.0,-0.0,-0.0,-0.0,-3.0,-0.0,-0.0,-0.0,-0.0,-0.0,-0.0,-0.0,-0.0,-0.0,-0.0,-0.0,-0.0,-0.0,-0.0,-0.0,-0.0,-0.0,-0.0,-0.0,-2.0,-0.0,-0.0,-0.0,-3.0,-0.0,-0.0,-0.0,-5.0,-0.0,-0.0,-0.0,-1.933248495138635e-9,-0.0,-0.0,-0.0,-1.0,-0.0,-0.0,-0.0]
